/* Objective function */
min: - 0.0054fpdi - 0.0054fpdo + 0.05apdi + 0.05apdo + 0.0002pi + 0.0002po - 0.5fsi - 0.5fso;

apdi = 0.0 hi + 0.0 li + 12.68889 ri + -0.01508 ci + -1.92051 si + 0.0 ti + 0.14218 fTempIi + 0.00542 ami + -156.2199;
asi = 0.0 hi + -0.0 li + -8e-05 ri + -0.00017 ci + -3e-05 si + -0.0 ti + -0.00014 fTempIi + 5e-05 ami + 0.0184;
aTempOi = 0.0 hi + 0.0 li + 0.2727 ri + -0.03552 ci + -0.05438 si + -0.0 ti + 0.79906 fTempIi + -0.00016 ami + 6.9037;
fpdi = 0.0 hi + -0.0 li + 27.62752 ri + -37.1481 ci + -0.06082 si + -0.0 ti + -1.43086 fTempIi + 0.00017 ami + 769.02063;
fsi = 0.0 hi + -0.0 li + 0.0 ri + -0.08 ci + 0.0 si + -0.0 ti + 0.0 fTempIi + 0.0 ami + 3.15;
fTempOi = 0.0 hi + -0.0 li + -0.27038 ri + 0.03413 ci + 0.05403 si + 0.0 ti + 0.21698 fTempIi + -0.00014 ami + 10.09615;
pi = 0.0 hi + 0.0 li + 433.2 ri + 3.1 ci + -46.65714 si + 0.0 ti + 0.0 fTempIi + -0.0 ami + 1758.24286;

apdo = 0.0 ho + 0.0 lo + 10.78304 ro + 0.00539 co + -1.5085 so + -0.0 to + 0.11241 fTempIo + 0.00485 amo + -124.75116;
aso = 0.0 ho + -0.0 lo + 0.0 ro + 0.0 co + 0.0 so + -0.0 to + -0.0 fTempIo + 5e-05 amo + 0.00857;
aTempOo = 0.0 ho + 0.0 lo + -0.33035 ro + 0.04031 co + 0.04475 so + 0.0 to + 0.73051 fTempIo + 0.00016 amo + 0.19314;
fpdo = 0.0 ho + -0.0 lo + 11.47319 ro + -11.25168 co + 0.02207 so + 0.0 to + -0.65433 fTempIo + -8e-05 amo + 329.13158;
fso = 0.0 ho + -0.0 lo + 0.00013 ro + -0.04029 co + -2e-05 so + 0.0 to + 0.00053 fTempIo + 0.0 amo + 2.24472;
fTempOo = 0.0 ho + 0.0 lo + 0.32545 ro + -0.03925 co + -0.044 so + 0.0 to + 0.27554 fTempIo + 0.00015 amo + 12.26412;
po = 0.0 ho + 0.0 lo + 502.0375 ro + 3.13714 co + -52.21267 so + 0.0 to + 0.0 fTempIo + 0.0 amo + 2629.42167;

/* Variable bounds */
aTempOi > 18.6;
1 =r6i + r8i + r10i + r12i + r14i;
ri =6r6i + 8r8i + 10r10i + 12r12i + 14r14i;
1 =s25i + s30i + s40i;
si =25s25i + 30s30i + 40s40i;
ti = 1;
apdi > 100;
apdi < 300;
asi > 0;
asi < 3;
aTempOi > 5;
aTempOi < 25;
fpdi > 100;
fpdi < 300;
fsi > 0;
fsi < 1.25;
fTempOi > 5;
fTempOi < 25;
pi > 0;
ri > 6;
ri < 14;
ci > 1;
ci < 23;
si > 25;
si < 60;
ti > 1;
ti < 3;
fTempIi > 5;
fTempIi < 25;

/* aTempOo < 11.4; */
1 =r6o + r8o + r10o + r12o + r14o;
ro =6r6o + 8r8o + 10r10o + 12r12o + 14r14o;
1 =s30o + s40o + s50o + s60o;
so =30s30o + 40s40o + 50s50o + 60s60o;
to = 3;
apdo > 100;
apdo < 300;
aso > 0;
aso < 3;
aTempOo > 5;
aTempOo < 25;
fpdo > 100;
fpdo < 300;
fso > 0;
fso < 1.25;
fTempOo > 5;
fTempOo < 25;
po > 0;
ro > 6;
ro < 14;
co > 23;
co < 60;
so > 25;
so < 60;
to > 1;
to < 3;
fTempIo > 5;
fTempIo < 25;
int hi,li,si,ti,ci,ri,ami;
int ho,lo,so,to,co,ro,amo;
bin s25i,s30i,s40i,s50i,s60i,r6i,r8i,r10i,r12i,r14i;
bin s25o,s30o,s40o,s50o,s60o,r6o,r8o,r10o,r12o,r14o;
